
Gurobi 7.0.2 (linux64) logging started Mon Jun 12 16:31:37 2017

Changed value of parameter logfile to result/NEIS-20170612T0949/scenario_300000PVS30PVWE10var-cost0027.log
   Prev: gurobi.log  Default: 
Optimize a model with 1059933 rows, 937229 columns and 3979188 nonzeros
Coefficient statistics:
  Matrix range     [8e-04, 1e+05]
  Objective range  [1e+00, 1e+00]
  Bounds range     [0e+00, 0e+00]
  RHS range        [3e-03, 3e+05]

Concurrent LP optimizer: primal simplex, dual simplex, and barrier
Showing barrier log only...

Presolve removed 594694 rows and 643281 columns
Presolve time: 2.70s
Presolved: 465239 rows, 293948 columns, 1347043 nonzeros

Ordering time: 0.40s

Barrier statistics:
 Dense cols : 21
 AA' NZ     : 1.881e+06
 Factor NZ  : 6.959e+06 (roughly 400 MBytes of memory)
 Factor Ops : 1.640e+08 (less than 1 second per iteration)
 Threads    : 22

                  Objective                Residual
Iter       Primal          Dual         Primal    Dual     Compl     Time
   0   3.86420770e+11 -2.66645340e+11  9.53e+02 6.93e+03  2.20e+07     4s
   1   3.05998437e+11 -9.70524816e+10  6.93e+02 1.33e+04  7.03e+06     5s
   2   2.98726782e+11 -6.90450677e+10  6.86e+02 8.97e+03  5.68e+06     5s
   3   2.07994658e+11 -1.19280983e+11  4.79e+02 1.96e+03  5.34e+06     6s
   4   3.82075394e+10 -1.16927047e+11  6.24e+01 1.55e+02  8.40e+05     6s
   5   4.15356018e+09 -6.11461693e+10  5.49e+00 2.50e+00  1.31e+05     7s
   6   4.68143367e+08 -1.69867009e+10  2.73e-01 5.39e-06  2.51e+04     7s
   7   2.42280790e+08 -2.38855723e+09  3.45e-02 1.02e-06  3.66e+03     8s
   8   1.25252376e+08 -7.54187614e+08  2.03e-03 3.58e-07  1.22e+03     8s
   9   8.89575271e+07 -8.16173864e+07  5.36e-04 1.75e-07  2.36e+02     9s
  10   7.19162612e+07 -6.46109548e+07  3.50e-04 1.46e-07  1.89e+02     9s
  11   6.95642089e+07 -5.24321847e+07  3.26e-04 1.28e-07  1.69e+02    10s
  12   6.38815202e+07 -3.92740816e+07  2.82e-04 1.15e-07  1.42e+02    10s
  13   5.41459491e+07 -1.24798721e+07  2.13e-04 6.23e-08  9.20e+01    11s
  14   3.39354547e+07  1.95190460e+06  1.06e-04 1.21e-08  4.42e+01    11s
  15   2.85189375e+07  6.16195599e+06  7.79e-05 6.42e-09  3.09e+01    11s
  16   2.49368840e+07  8.36501956e+06  6.08e-05 4.60e-09  2.29e+01    12s
  17   2.05628337e+07  1.05020874e+07  3.82e-05 2.25e-09  1.39e+01    13s
  18   1.98613450e+07  1.15215569e+07  3.48e-05 1.13e-09  1.15e+01    13s
  19   1.80817316e+07  1.18731360e+07  2.56e-05 9.90e-10  8.57e+00    14s
  20   1.78712047e+07  1.19825564e+07  2.44e-05 2.85e-09  8.13e+00    14s
  21   1.71891663e+07  1.21960138e+07  2.08e-05 5.99e-10  6.90e+00    14s
  22   1.67646331e+07  1.23045030e+07  1.85e-05 4.28e-10  6.16e+00    15s
  23   1.62237741e+07  1.24226406e+07  1.58e-05 4.25e-10  5.25e+00    15s
  24   1.55515678e+07  1.27057068e+07  1.22e-05 6.26e-10  3.93e+00    16s
  25   1.50066147e+07  1.28922968e+07  9.30e-06 1.28e-09  2.92e+00    17s
  26   1.46698449e+07  1.30253718e+07  7.48e-06 2.97e-09  2.27e+00    17s
  27   1.43792185e+07  1.30855886e+07  5.84e-06 4.83e-09  1.79e+00    18s
  28   1.41905906e+07  1.31409597e+07  4.77e-06 8.79e-09  1.45e+00    18s
  29   1.40738427e+07  1.31662419e+07  4.13e-06 7.74e-09  1.25e+00    18s
  30   1.38520859e+07  1.31873356e+07  2.96e-06 1.03e-08  9.18e-01    19s
  31   1.37892379e+07  1.32029444e+07  2.59e-06 9.66e-09  8.10e-01    19s
  32   1.37353053e+07  1.32326585e+07  2.32e-06 1.08e-08  6.94e-01    20s
  33   1.36409356e+07  1.32515321e+07  1.82e-06 1.36e-08  5.38e-01    21s
  34   1.35872002e+07  1.32692713e+07  1.52e-06 1.46e-08  4.39e-01    21s
  35   1.35546811e+07  1.32782518e+07  1.32e-06 1.17e-08  3.82e-01    22s
  36   1.35213224e+07  1.32859061e+07  1.12e-06 1.13e-08  3.25e-01    22s
  37   1.34972005e+07  1.32938074e+07  9.80e-07 1.44e-08  2.81e-01    22s
  38   1.34804675e+07  1.33049907e+07  8.80e-07 1.32e-08  2.42e-01    23s
  39   1.34574117e+07  1.33076011e+07  7.43e-07 1.23e-08  2.07e-01    23s
  40   1.34386076e+07  1.33104676e+07  6.41e-07 1.33e-08  1.77e-01    24s
  41   1.34176473e+07  1.33155272e+07  5.17e-07 8.15e-09  1.41e-01    25s
  42   1.33984460e+07  1.33183145e+07  4.16e-07 6.29e-09  1.11e-01    25s
  43   1.33910231e+07  1.33205710e+07  3.70e-07 1.18e-09  9.73e-02    25s
  44   1.33779703e+07  1.33214285e+07  2.93e-07 1.51e-09  7.81e-02    26s
  45   1.33711323e+07  1.33224943e+07  2.52e-07 1.69e-09  6.72e-02    26s
  46   1.33589130e+07  1.33233137e+07  1.83e-07 8.85e-09  4.92e-02    27s
  47   1.33529840e+07  1.33240341e+07  1.47e-07 9.26e-09  4.00e-02    27s
  48   1.33469016e+07  1.33245288e+07  1.10e-07 9.37e-09  3.09e-02    28s
  49   1.33435818e+07  1.33254153e+07  9.07e-08 7.16e-09  2.51e-02    28s
  50   1.33414074e+07  1.33258930e+07  7.78e-08 6.23e-09  2.14e-02    29s
  51   1.33409198e+07  1.33262833e+07  7.48e-08 6.11e-09  2.02e-02    29s
  52   1.33386193e+07  1.33266764e+07  6.01e-08 3.78e-09  1.65e-02    30s
  53   1.33374255e+07  1.33270832e+07  5.30e-08 3.14e-09  1.43e-02    30s
  54   1.33342850e+07  1.33274829e+07  3.54e-08 5.47e-09  9.39e-03    31s
  55   1.33336063e+07  1.33276732e+07  3.11e-08 2.56e-09  8.19e-03    31s
  56   1.33320076e+07  1.33279092e+07  2.10e-08 5.94e-09  5.66e-03    32s
  57   1.33314674e+07  1.33280534e+07  1.79e-08 4.89e-09  4.71e-03    32s
  58   1.33309522e+07  1.33282590e+07  1.47e-08 1.22e-09  3.72e-03    33s
  59   1.33303937e+07  1.33283149e+07  1.12e-08 4.32e-09  2.87e-03    33s
  60   1.33300453e+07  1.33283582e+07  9.07e-09 4.23e-09  2.33e-03    34s
  61   1.33299194e+07  1.33283698e+07  8.31e-09 3.64e-09  2.14e-03    34s
  62   1.33296961e+07  1.33283982e+07  6.94e-09 3.42e-09  1.79e-03    35s
  63   1.33295464e+07  1.33284111e+07  6.03e-09 3.42e-09  1.57e-03    35s
  64   1.33294378e+07  1.33284419e+07  5.41e-09 2.98e-09  1.38e-03    36s
  65   1.33291619e+07  1.33284744e+07  3.89e-09 2.67e-08  9.49e-04    36s
  66   1.33290243e+07  1.33284936e+07  3.49e-09 4.39e-08  7.33e-04    37s
  67   1.33289682e+07  1.33284968e+07  3.08e-09 4.00e-08  6.51e-04    38s
  68   1.33289240e+07  1.33285085e+07  2.76e-09 2.85e-08  5.74e-04    38s
  69   1.33288033e+07  1.33285190e+07  1.91e-09 1.63e-08  3.93e-04    39s
  70   1.33286322e+07  1.33285308e+07  5.83e-10 1.44e-08  1.40e-04    40s
  71   1.33285963e+07  1.33285349e+07  8.49e-07 2.77e-08  8.48e-05    41s
  72   1.33285929e+07  1.33285351e+07  3.26e-06 1.98e-08  7.97e-05    41s
  73   1.33285862e+07  1.33285360e+07  2.85e-06 7.86e-09  6.93e-05    42s
  74   1.33285803e+07  1.33285368e+07  2.49e-06 7.74e-09  6.00e-05    42s
  75   1.33285802e+07  1.33285368e+07  2.48e-06 1.04e-08  5.99e-05    43s
  76   1.33285692e+07  1.33285332e+07  2.03e-06 3.26e-09  4.97e-05    44s
  77   1.33285630e+07  1.33285341e+07  1.58e-06 2.42e-08  3.99e-05    45s
  78   1.33285538e+07  1.33285364e+07  9.55e-07 4.41e-09  2.40e-05    45s
  79   1.33285538e+07  1.33285364e+07  2.75e-06 4.40e-09  2.40e-05    46s
  80   1.33285538e+07  1.33285364e+07  2.75e-06 3.98e-09  2.40e-05    46s
  81   1.33285538e+07  1.33285364e+07  2.74e-06 3.49e-09  2.40e-05    47s
  82   1.33285538e+07  1.33285364e+07  2.74e-06 5.24e-10  2.40e-05    48s
  83   1.33285538e+07  1.33285364e+07  2.74e-06 6.11e-10  2.40e-05    49s
  84   1.33285538e+07  1.33285364e+07  2.74e-06 1.17e-09  2.40e-05    50s
  85   1.33285538e+07  1.33285364e+07  2.74e-06 1.63e-09  2.40e-05    51s
  86   1.33285538e+07  1.33285364e+07  2.74e-06 5.68e-10  2.40e-05    51s
  87   1.33285538e+07  1.33285364e+07  2.74e-06 1.32e-09  2.40e-05    52s
  88   1.33285538e+07  1.33285364e+07  2.74e-06 2.62e-10  2.40e-05    53s

Barrier performed 88 iterations in 53.06 seconds
Sub-optimal termination - objective 1.33285803e+07

Crossover log...

  179928 DPushes remaining with DInf 0.0000000e+00                53s
   54180 DPushes remaining with DInf 0.0000000e+00                55s
   45636 DPushes remaining with DInf 0.0000000e+00                60s
   39940 DPushes remaining with DInf 0.0000000e+00                65s
   35312 DPushes remaining with DInf 0.0000000e+00                70s
   30684 DPushes remaining with DInf 0.0000000e+00                75s
   27480 DPushes remaining with DInf 0.0000000e+00                80s
   20360 DPushes remaining with DInf 0.0000000e+00                85s
   16088 DPushes remaining with DInf 0.0000000e+00                90s
   11104 DPushes remaining with DInf 0.0000000e+00                95s
    6612 DPushes remaining with DInf 0.0000000e+00               100s
    4786 DPushes remaining with DInf 0.0000000e+00               106s
    2992 DPushes remaining with DInf 0.0000000e+00               111s
       0 DPushes remaining with DInf 2.4231974e-09               113s

  187831 PPushes remaining with PInf 3.4343620e-02               113s
   30022 PPushes remaining with PInf 2.7152968e-01               116s
       0 PPushes remaining with PInf 0.0000000e+00               118s

  Push phase complete: Pinf 0.0000000e+00, Dinf 2.6739827e+04    119s

Iteration    Objective       Primal Inf.    Dual Inf.      Time
  367246    1.3328540e+07   0.000000e+00   2.673983e+04    119s
  367792    1.3328539e+07   0.000000e+00   0.000000e+00    121s

Solved with barrier
Solved in 367792 iterations and 120.77 seconds
Optimal objective  1.332853903e+07
